NAME: rand_0/map1_480
TYPE: TSP
COMMENT: autogenerated using a wonderful map creator
DIMENSION: 600
EDGE_WEIGHT_TYPE: EUC_2D
NODE_COORD_SECTION
1 4.0 97.0
2 17.0 94.0
3 24.0 6.0
4 12.0 6.0
5 40.0 95.0
6 22.0 5.0
7 42.0 2.0
8 44.0 99.0
9 18.0 97.0
10 25.0 95.0
11 6.0 5.0
12 31.0 2.0
13 17.0 4.0
14 39.0 95.0
15 12.0 4.0
16 12.0 1.0
17 12.0 95.0
18 17.0 6.0
19 6.0 98.0
20 13.0 3.0
21 43.0 2.0
22 2.0 6.0
23 22.0 1.0
24 28.0 96.0
25 8.0 5.0
26 4.0 96.0
27 34.0 98.0
28 10.0 4.0
29 3.0 4.0
30 9.0 99.0
31 7.0 97.0
32 18.0 6.0
33 30.0 6.0
34 39.0 96.0
35 41.0 5.0
36 7.0 99.0
37 3.0 2.0
38 3.0 1.0
39 15.0 94.0
40 34.0 99.0
41 8.0 6.0
42 42.0 95.0
43 44.0 96.0
44 24.0 95.0
45 35.0 4.0
46 5.0 4.0
47 38.0 3.0
48 29.0 95.0
49 27.0 5.0
50 25.0 1.0
51 43.0 1.0
52 41.0 1.0
53 32.0 94.0
54 29.0 96.0
55 9.0 6.0
56 12.0 94.0
57 21.0 96.0
58 8.0 99.0
59 3.0 6.0
60 10.0 98.0
61 11.0 99.0
62 14.0 5.0
63 29.0 97.0
64 11.0 5.0
65 44.0 4.0
66 40.0 5.0
67 14.0 1.0
68 30.0 94.0
69 36.0 4.0
70 33.0 4.0
71 41.0 98.0
72 9.0 97.0
73 4.0 5.0
74 32.0 97.0
75 18.0 3.0
76 1.0 2.0
77 1.0 4.0
78 8.0 98.0
79 43.0 3.0
80 43.0 97.0
81 19.0 95.0
82 26.0 99.0
83 11.0 2.0
84 2.0 97.0
85 40.0 3.0
86 23.0 94.0
87 30.0 2.0
88 11.0 96.0
89 39.0 4.0
90 23.0 97.0
91 41.0 95.0
92 18.0 2.0
93 33.0 5.0
94 11.0 4.0
95 4.0 2.0
96 8.0 3.0
97 35.0 3.0
98 41.0 3.0
99 13.0 2.0
100 36.0 94.0
101 16.0 4.0
102 26.0 3.0
103 38.0 98.0
104 43.0 99.0
105 7.0 1.0
106 39.0 99.0
107 13.0 97.0
108 37.0 1.0
109 28.0 5.0
110 39.0 6.0
111 3.0 94.0
112 1.0 3.0
113 3.0 98.0
114 31.0 1.0
115 35.0 2.0
116 24.0 97.0
117 16.0 99.0
118 42.0 4.0
119 12.0 97.0
120 42.0 96.0
121 39.0 98.0
122 24.0 4.0
123 33.0 99.0
124 38.0 96.0
125 11.0 97.0
126 41.0 96.0
127 39.0 1.0
128 10.0 95.0
129 28.0 99.0
130 30.0 96.0
131 26.0 95.0
132 8.0 2.0
133 17.0 1.0
134 25.0 5.0
135 13.0 95.0
136 1.0 98.0
137 26.0 2.0
138 21.0 99.0
139 22.0 2.0
140 17.0 99.0
141 16.0 5.0
142 10.0 1.0
143 7.0 96.0
144 33.0 3.0
145 6.0 6.0
146 15.0 2.0
147 31.0 96.0
148 16.0 95.0
149 38.0 95.0
150 20.0 99.0
151 32.0 3.0
152 23.0 96.0
153 23.0 1.0
154 22.0 98.0
155 14.0 95.0
156 42.0 98.0
157 5.0 97.0
158 35.0 5.0
159 36.0 1.0
160 20.0 94.0
161 30.0 5.0
162 29.0 2.0
163 17.0 98.0
164 17.0 3.0
165 7.0 4.0
166 34.0 4.0
167 11.0 6.0
168 2.0 96.0
169 8.0 4.0
170 2.0 5.0
171 26.0 1.0
172 18.0 98.0
173 44.0 6.0
174 38.0 5.0
175 38.0 1.0
176 9.0 95.0
177 40.0 97.0
178 37.0 2.0
179 25.0 97.0
180 13.0 99.0
181 43.0 98.0
182 40.0 4.0
183 11.0 3.0
184 20.0 4.0
185 15.0 1.0
186 39.0 2.0
187 20.0 95.0
188 5.0 5.0
189 23.0 4.0
190 41.0 99.0
191 9.0 4.0
192 18.0 4.0
193 32.0 5.0
194 6.0 2.0
195 15.0 6.0
196 13.0 4.0
197 39.0 94.0
198 43.0 5.0
199 35.0 1.0
200 20.0 2.0
201 40.0 96.0
202 28.0 1.0
203 34.0 1.0
204 26.0 6.0
205 31.0 99.0
206 8.0 1.0
207 34.0 95.0
208 4.0 95.0
209 25.0 98.0
210 24.0 98.0
211 4.0 1.0
212 13.0 1.0
213 42.0 6.0
214 14.0 96.0
215 16.0 98.0
216 29.0 94.0
217 20.0 97.0
218 12.0 3.0
219 20.0 5.0
220 28.0 97.0
221 5.0 2.0
222 17.0 2.0
223 31.0 3.0
224 33.0 6.0
225 31.0 95.0
226 23.0 2.0
227 30.0 99.0
228 25.0 99.0
229 44.0 1.0
230 19.0 5.0
231 15.0 95.0
232 38.0 97.0
233 35.0 94.0
234 11.0 95.0
235 18.0 96.0
236 23.0 99.0
237 5.0 96.0
238 34.0 97.0
239 10.0 5.0
240 39.0 3.0
241 16.0 84.0
242 7.0 35.0
243 19.0 9.0
244 40.0 41.0
245 5.0 83.0
246 40.0 50.0
247 29.0 50.0
248 40.0 68.0
249 10.0 36.0
250 10.0 45.0
251 34.0 12.0
252 37.0 8.0
253 22.0 19.0
254 31.0 86.0
255 37.0 17.0
256 25.0 61.0
257 22.0 37.0
258 22.0 46.0
259 24.0 83.0
260 35.0 83.0
261 13.0 83.0
262 16.0 79.0
263 7.0 21.0
264 28.0 71.0
265 28.0 80.0
266 40.0 45.0
267 28.0 89.0
268 6.0 61.0
269 10.0 22.0
270 10.0 31.0
271 10.0 40.0
272 37.0 12.0
273 10.0 58.0
274 34.0 25.0
275 43.0 55.0
276 22.0 32.0
277 13.0 51.0
278 3.0 28.0
279 43.0 82.0
280 16.0 65.0
281 13.0 78.0
282 28.0 39.0
283 1.0 85.0
284 16.0 83.0
285 28.0 66.0
286 40.0 49.0
287 10.0 8.0
288 10.0 17.0
289 25.0 24.0
290 25.0 33.0
291 43.0 41.0
292 31.0 85.0
293 32.0 50.0
294 13.0 55.0
295 28.0 25.0
296 16.0 69.0
297 1.0 89.0
298 40.0 8.0
299 9.0 39.0
300 28.0 61.0
301 40.0 35.0
302 40.0 44.0
303 31.0 53.0
304 10.0 30.0
305 25.0 28.0
306 13.0 32.0
307 31.0 80.0
308 4.0 63.0
309 13.0 41.0
310 4.0 81.0
311 43.0 72.0
312 32.0 72.0
313 28.0 20.0
314 13.0 68.0
315 34.0 91.0
316 16.0 64.0
317 28.0 38.0
318 28.0 47.0
319 40.0 12.0
320 28.0 56.0
321 6.0 28.0
322 9.0 61.0
323 7.0 91.0
324 20.0 39.0
325 19.0 83.0
326 31.0 48.0
327 39.0 61.0
328 43.0 22.0
329 4.0 67.0
330 4.0 76.0
331 16.0 41.0
332 37.0 82.0
333 1.0 70.0
334 38.0 83.0
335 7.0 77.0
336 25.0 9.0
337 31.0 43.0
338 12.0 39.0
339 1.0 29.0
340 1.0 38.0
341 13.0 40.0
342 43.0 53.0
343 34.0 72.0
344 4.0 80.0
345 34.0 81.0
346 1.0 56.0
347 37.0 77.0
348 37.0 86.0
349 7.0 63.0
350 40.0 11.0
351 27.0 50.0
352 19.0 46.0
353 31.0 29.0
354 31.0 56.0
355 24.0 17.0
356 4.0 48.0
357 23.0 61.0
358 10.0 91.0
359 43.0 39.0
360 16.0 22.0
361 13.0 35.0
362 25.0 89.0
363 4.0 66.0
364 34.0 67.0
365 32.0 39.0
366 37.0 63.0
367 34.0 76.0
368 16.0 40.0
369 1.0 51.0
370 37.0 72.0
371 22.0 83.0
372 28.0 14.0
373 22.0 92.0
374 9.0 28.0
375 19.0 32.0
376 7.0 76.0
377 39.0 28.0
378 31.0 24.0
379 40.0 91.0
380 4.0 25.0
381 41.0 83.0
382 13.0 12.0
383 1.0 10.0
384 1.0 19.0
385 25.0 75.0
386 43.0 34.0
387 13.0 21.0
388 34.0 53.0
389 13.0 30.0
390 22.0 60.0
391 37.0 58.0
392 22.0 87.0
393 3.0 83.0
394 37.0 85.0
395 14.0 83.0
396 7.0 44.0
397 19.0 27.0
398 19.0 36.0
399 7.0 80.0
400 31.0 10.0
401 19.0 54.0
402 11.0 50.0
403 19.0 63.0
404 31.0 37.0
405 4.0 20.0
406 43.0 20.0
407 10.0 72.0
408 16.0 12.0
409 10.0 90.0
410 22.0 73.0
411 34.0 75.0
412 22.0 82.0
413 7.0 39.0
414 15.0 61.0
415 7.0 57.0
416 7.0 66.0
417 19.0 31.0
418 7.0 75.0
419 40.0 72.0
420 29.0 72.0
421 10.0 67.0
422 34.0 34.0
423 22.0 41.0
424 1.0 18.0
425 34.0 61.0
426 37.0 57.0
427 34.0 70.0
428 7.0 43.0
429 19.0 17.0
430 18.0 61.0
431 42.0 28.0
432 27.0 39.0
433 19.0 35.0
434 31.0 18.0
435 21.0 72.0
436 34.0 20.0
437 4.0 28.0
438 34.0 29.0
439 25.0 60.0
440 22.0 36.0
441 34.0 47.0
442 25.0 78.0
443 22.0 54.0
444 25.0 87.0
445 43.0 86.0
446 13.0 91.0
447 7.0 20.0
448 7.0 29.0
449 28.0 70.0
450 36.0 83.0
451 7.0 47.0
452 28.0 79.0
453 19.0 21.0
454 31.0 13.0
455 40.0 80.0
456 25.0 37.0
457 34.0 15.0
458 22.0 22.0
459 22.0 31.0
460 34.0 33.0
461 25.0 64.0
462 10.0 75.0
463 13.0 77.0
464 7.0 24.0
465 16.0 91.0
466 7.0 33.0
467 5.0 72.0
468 19.0 16.0
469 17.0 83.0
470 28.0 92.0
471 10.0 34.0
472 10.0 43.0
473 34.0 10.0
474 25.0 41.0
475 2.0 39.0
476 34.0 19.0
477 37.0 15.0
478 34.0 28.0
479 22.0 26.0
480 22.0 44.0
481 43.0 76.0
482 37.0 42.0
483 13.0 72.0
484 35.0 72.0
485 43.0 85.0
486 1.0 88.0
487 28.0 51.0
488 7.0 28.0
489 18.0 28.0
490 28.0 69.0
491 19.0 11.0
492 28.0 78.0
493 6.0 50.0
494 40.0 61.0
495 10.0 20.0
496 10.0 29.0
497 10.0 38.0
498 25.0 36.0
499 25.0 45.0
500 10.0 56.0
501 34.0 23.0
502 31.0 88.0
503 22.0 30.0
504 2.0 61.0
505 37.0 28.0
506 13.0 67.0
507 43.0 80.0
508 1.0 74.0
509 13.0 76.0
510 43.0 89.0
511 16.0 72.0
512 16.0 90.0
513 28.0 55.0
514 40.0 20.0
515 40.0 29.0
516 40.0 38.0
517 40.0 56.0
518 21.0 61.0
519 19.0 91.0
520 25.0 22.0
521 25.0 40.0
522 31.0 74.0
523 22.0 16.0
524 20.0 83.0
525 31.0 83.0
526 43.0 48.0
527 43.0 66.0
528 13.0 80.0
529 40.0 15.0
530 28.0 59.0
531 40.0 33.0
532 19.0 77.0
533 25.0 26.0
534 31.0 60.0
535 22.0 11.0
536 31.0 78.0
537 37.0 9.0
538 22.0 20.0
539 43.0 52.0
540 12.0 83.0
541 32.0 61.0
542 4.0 79.0
543 43.0 70.0
544 16.0 53.0
545 13.0 66.0
546 1.0 64.0
547 28.0 27.0
548 16.0 80.0
549 28.0 45.0
550 1.0 91.0
551 28.0 54.0
552 28.0 63.0
553 29.0 28.0
554 40.0 28.0
555 40.0 37.0
556 7.0 89.0
557 39.0 50.0
558 19.0 81.0
559 2.0 28.0
560 4.0 56.0
561 4.0 65.0
562 4.0 74.0
563 1.0 50.0
564 4.0 83.0
565 34.0 84.0
566 16.0 48.0
567 16.0 57.0
568 28.0 22.0
569 38.0 72.0
570 28.0 49.0
571 40.0 14.0
572 7.0 84.0
573 25.0 16.0
574 4.0 42.0
575 39.0 72.0
576 13.0 20.0
577 16.0 25.0
578 16.0 34.0
579 28.0 8.0
580 1.0 54.0
581 22.0 86.0
582 28.0 17.0
583 17.0 17.0
584 16.0 61.0
585 28.0 26.0
586 36.0 39.0
587 28.0 35.0
588 26.0 83.0
589 7.0 79.0
590 7.0 88.0
591 19.0 53.0
592 10.0 13.0
593 31.0 54.0
594 43.0 19.0
595 4.0 55.0
596 43.0 46.0
597 16.0 29.0
598 4.0 73.0
599 34.0 74.0
600 1.0 49.0
601 28.0 12.0
602 34.0 92.0
603 22.0 90.0
604 28.0 21.0
605 9.0 17.0
606 7.0 74.0
607 39.0 17.0
608 7.0 92.0
609 31.0 22.0
610 31.0 31.0
611 19.0 75.0
612 41.0 72.0
613 43.0 14.0
614 4.0 32.0
615 31.0 58.0
616 4.0 50.0
617 25.0 82.0
618 24.0 28.0
619 4.0 59.0
620 25.0 91.0
621 13.0 37.0
622 16.0 42.0
623 22.0 76.0
624 14.0 72.0
625 37.0 92.0
626 19.0 34.0
627 19.0 43.0
628 31.0 8.0
629 7.0 87.0
630 31.0 17.0
631 31.0 26.0
632 4.0 27.0
633 33.0 72.0
634 25.0 68.0
635 43.0 27.0
636 16.0 10.0
637 13.0 23.0
638 1.0 21.0
639 4.0 54.0
640 34.0 55.0
641 1.0 30.0
642 22.0 62.0
643 34.0 82.0
644 22.0 80.0
645 22.0 89.0
646 37.0 87.0
647 26.0 50.0
648 15.0 50.0
649 38.0 61.0
650 19.0 29.0
651 7.0 82.0
652 19.0 47.0
653 31.0 12.0
654 19.0 56.0
655 12.0 17.0
656 43.0 13.0
657 25.0 63.0
658 4.0 40.0
659 34.0 41.0
660 10.0 74.0
661 13.0 18.0
662 34.0 50.0
663 22.0 48.0
664 1.0 25.0
665 25.0 81.0
666 22.0 57.0
667 16.0 23.0
668 37.0 64.0
669 7.0 50.0
670 19.0 15.0
671 27.0 28.0
672 28.0 91.0
673 6.0 72.0
674 19.0 51.0
675 40.0 83.0
676 4.0 17.0
677 25.0 49.0
678 10.0 60.0
679 22.0 34.0
680 1.0 11.0
681 10.0 78.0
682 34.0 45.0
683 16.0 9.0
684 14.0 39.0
685 10.0 87.0
686 3.0 39.0
687 22.0 70.0
688 7.0 18.0
689 37.0 68.0
690 36.0 72.0
691 7.0 45.0
692 7.0 54.0
693 19.0 28.0
694 19.0 37.0
695 40.0 78.0
696 31.0 20.0
697 4.0 12.0
698 34.0 22.0
699 25.0 53.0
700 22.0 29.0
701 37.0 27.0
702 22.0 38.0
703 22.0 47.0
704 25.0 80.0
705 37.0 45.0
706 22.0 56.0
707 22.0 65.0
708 14.0 61.0
709 7.0 49.0
710 28.0 81.0
711 40.0 73.0
712 25.0 30.0
713 10.0 41.0
714 25.0 39.0
715 25.0 48.0
716 33.0 61.0
717 34.0 26.0
718 10.0 68.0
719 22.0 33.0
720 32.0 83.0
START_DEPOT_SECTION
1
2
3
4
5
6
7
8
9
10
11
12
13
14
15
16
17
18
19
20
21
22
23
24
25
26
27
28
29
30
31
32
33
34
35
36
37
38
39
40
41
42
43
44
45
46
47
48
49
50
51
52
53
54
55
56
57
58
59
60
61
62
63
64
65
66
67
68
69
70
71
72
73
74
75
76
77
78
79
80
81
82
83
84
85
86
87
88
89
90
91
92
93
94
95
96
97
98
99
100
101
102
103
104
105
106
107
108
109
110
111
112
113
114
115
116
117
118
119
120
-1
END_DEPOT_SECTION
121
122
123
124
125
126
127
128
129
130
131
132
133
134
135
136
137
138
139
140
141
142
143
144
145
146
147
148
149
150
151
152
153
154
155
156
157
158
159
160
161
162
163
164
165
166
167
168
169
170
171
172
173
174
175
176
177
178
179
180
181
182
183
184
185
186
187
188
189
190
191
192
193
194
195
196
197
198
199
200
201
202
203
204
205
206
207
208
209
210
211
212
213
214
215
216
217
218
219
220
221
222
223
224
225
226
227
228
229
230
231
232
233
234
235
236
237
238
239
240
-1
EOF
